p cnf 598 1833
1 2 3 4 5 6 7 8 9 15 17 22 25 29 33 36 41 43 49 0
1 2 3 4 5 6 7 8 9 10 16 18 23 26 30 34 37 42 44 0
1 2 3 4 5 6 7 9 10 11 15 17 19 24 27 31 35 38 45 0
1 2 3 4 5 6 7 10 11 12 16 18 20 22 25 28 32 39 46 0
1 2 3 4 5 6 7 11 12 13 17 19 21 23 26 29 33 40 47 0
1 2 3 4 5 6 7 12 13 14 18 20 24 27 30 34 36 41 48 0
1 2 3 4 5 6 7 13 14 19 21 25 28 31 35 37 42 43 49 0
1 2 8 9 10 11 12 13 14 15 16 22 24 29 32 36 40 43 48 0
1 2 3 8 9 10 11 12 13 14 15 16 17 23 25 30 33 37 41 44 49 0
2 3 4 8 9 10 11 12 13 14 16 17 18 22 24 26 31 34 38 42 45 0
3 4 5 8 9 10 11 12 13 14 17 18 19 23 25 27 29 32 35 39 46 0
4 5 6 8 9 10 11 12 13 14 18 19 20 24 26 28 30 33 36 40 47 0
5 6 7 8 9 10 11 12 13 14 19 20 21 25 27 31 34 37 41 43 48 0
6 7 8 9 10 11 12 13 14 20 21 26 28 32 35 38 42 44 49 0
1 3 8 9 15 16 17 18 19 20 21 22 23 29 31 36 39 43 47 0
2 4 8 9 10 15 16 17 18 19 20 21 22 23 24 30 32 37 40 44 48 0
1 3 5 9 10 11 15 16 17 18 19 20 21 23 24 25 29 31 33 38 41 45 49 0
2 4 6 10 11 12 15 16 17 18 19 20 21 24 25 26 30 32 34 36 39 42 46 0
3 5 7 11 12 13 15 16 17 18 19 20 21 25 26 27 31 33 35 37 40 43 47 0
4 6 12 13 14 15 16 17 18 19 20 21 26 27 28 32 34 38 41 44 48 0
5 7 13 14 15 16 17 18 19 20 21 27 28 33 35 39 42 45 49 0
1 4 8 10 15 16 22 23 24 25 26 27 28 29 30 36 38 43 46 0
2 5 9 11 15 16 17 22 23 24 25 26 27 28 29 30 31 37 39 44 47 0
3 6 8 10 12 16 17 18 22 23 24 25 26 27 28 30 31 32 36 38 40 45 48 0
1 4 7 9 11 13 17 18 19 22 23 24 25 26 27 28 31 32 33 37 39 41 43 46 49 0
2 5 10 12 14 18 19 20 22 23 24 25 26 27 28 32 33 34 38 40 42 44 47 0
3 6 11 13 19 20 21 22 23 24 25 26 27 28 33 34 35 39 41 45 48 0
4 7 12 14 20 21 22 23 24 25 26 27 28 34 35 40 42 46 49 0
1 5 8 11 15 17 22 23 29 30 31 32 33 34 35 36 37 43 45 0
2 6 9 12 16 18 22 23 24 29 30 31 32 33 34 35 36 37 38 44 46 0
3 7 10 13 15 17 19 23 24 25 29 30 31 32 33 34 35 37 38 39 43 45 47 0
4 8 11 14 16 18 20 24 25 26 29 30 31 32 33 34 35 38 39 40 44 46 48 0
1 5 9 12 17 19 21 25 26 27 29 30 31 32 33 34 35 39 40 41 45 47 49 0
2 6 10 13 18 20 26 27 28 29 30 31 32 33 34 35 40 41 42 46 48 0
3 7 11 14 19 21 27 28 29 30 31 32 33 34 35 41 42 47 49 0
1 6 8 12 15 18 22 24 29 30 36 37 38 39 40 41 42 43 44 0
2 7 9 13 16 19 23 25 29 30 31 36 37 38 39 40 41 42 43 44 45 0
3 10 14 17 20 22 24 26 30 31 32 36 37 38 39 40 41 42 44 45 46 0
4 11 15 18 21 23 25 27 31 32 33 36 37 38 39 40 41 42 45 46 47 0
5 8 12 16 19 24 26 28 32 33 34 36 37 38 39 40 41 42 46 47 48 0
1 6 9 13 17 20 25 27 33 34 35 36 37 38 39 40 41 42 47 48 49 0
2 7 10 14 18 21 26 28 34 35 36 37 38 39 40 41 42 48 49 0
1 7 8 13 15 19 22 25 29 31 36 37 43 44 45 46 47 48 49 0
2 9 14 16 20 23 26 30 32 36 37 38 43 44 45 46 47 48 49 0
3 10 17 21 24 27 29 31 33 37 38 39 43 44 45 46 47 48 49 0
4 11 18 22 25 28 30 32 34 38 39 40 43 44 45 46 47 48 49 0
5 12 15 19 23 26 31 33 35 39 40 41 43 44 45 46 47 48 49 0
6 8 13 16 20 24 27 32 34 40 41 42 43 44 45 46 47 48 49 0
1 7 9 14 17 21 25 28 33 35 41 42 43 44 45 46 47 48 49 0
-25 -26 -27 -22 0
-25 -32 -4 -39 0
-25 -9 -41 -17 0
-25 -9 -41 -33 0
-25 -37 -13 -19 0
-25 -37 -13 -31 0
-25 -23 -24 -28 0
-25 -46 -18 -11 0
-17 -46 -13 -42 0
-17 -46 -7 -24 0
-17 -28 -37 -48 0
-17 -28 -43 -18 0
-17 -43 -34 -11 0
-17 -43 -7 -33 0
-17 -23 -40 -7 0
-33 -22 -7 -32 0
-33 -22 -13 -2 0
-33 -4 -8 -37 0
-33 -4 -43 -26 0
-33 -43 -10 -27 0
-33 -39 -16 -7 0
-9 -46 -19 -36 0
-9 -46 -12 -35 0
-9 -39 -27 -1 0
-9 -31 -28 -6 0
-9 -47 -28 -30 0
-9 -3 -40 -15 0
-9 -3 -15 -34 0
-41 -16 -47 -35 0
-41 -19 -44 -22 0
-41 -15 -4 -38 0
-41 -20 -3 -22 0
-41 -35 -47 -10 0
-41 -14 -31 -4 0
-41 -49 -11 -23 0
-1 -38 -19 -27 0
-1 -24 -40 -14 0
-1 -39 -20 -31 0
-1 -39 -32 -12 0
-1 -27 -26 -30 0
-1 -31 -28 -32 0
-1 -31 -19 -49 0
-1 -44 -18 -34 0
-1 -46 -26 -19 0
-2 -45 -27 -8 0
-2 -46 -20 -30 0
-2 -21 -39 -8 0
-2 -43 -32 -20 0
-3 -44 -27 -36 0
-4 -37 -21 -40 0
-4 -44 -34 -16 0
-4 -49 -24 -31 0
-4 -30 -48 -20 0
-5 -48 -23 -42 0
-5 -21 -30 -13 0
-5 -21 -13 -38 0
-5 -28 -37 -16 0
-6 -23 -14 -47 0
-6 -49 -32 -16 0
-6 -16 -46 -34 0
-6 -15 -14 -39 0
-7 -30 -18 -48 0
-7 -23 -34 -24 0
-7 -23 -39 -13 0
-7 -10 -39 -32 0
-7 -8 -38 -26 0
-8 -12 -38 -28 0
-22 -19 -18 -49 0
-22 -10 -14 -40 0
-22 -38 -42 -12 0
-22 -45 -13 -34 0
-29 -10 -13 -46 0
-29 -11 -48 -42 0
-29 -45 -20 -37 0
-29 -45 -12 -37 0
-36 -11 -35 -44 0
-36 -26 -10 -49 0
-36 -40 -10 -28 0
-43 -24 -42 -12 0
-43 -11 -18 -40 0
-43 -11 -37 -27 0
-43 -27 -16 -26 0
-49 -12 -31 -23 0
-49 -11 -18 -38 0
-49 -11 -19 -30 0
-49 -23 -24 -20 0
-75 57 81 0
-76 58 81 0
-77 59 81 0
-78 60 81 0
-79 61 81 0
-80 62 81 0
-66 57 81 0
-67 58 81 0
-68 59 81 0
-69 60 81 0
-70 61 81 0
-71 62 81 0
-66 -75 58 81 0
-66 -76 59 81 0
-66 -77 60 81 0
-66 -78 61 81 0
-66 -79 62 81 0
-66 -80 81 0
-67 -75 59 81 0
-67 -76 60 81 0
-67 -77 61 81 0
-67 -78 62 81 0
-67 -79 81 0
-67 -80 57 0
-68 -75 60 81 0
-68 -76 61 81 0
-68 -77 62 81 0
-68 -78 81 0
-68 -79 57 0
-68 -80 58 0
-69 -75 61 81 0
-69 -76 62 81 0
-69 -77 81 0
-69 -78 57 0
-69 -79 58 0
-69 -80 59 0
-70 -75 62 81 0
-70 -76 81 0
-70 -77 57 0
-70 -78 58 0
-70 -79 59 0
-70 -80 60 0
-71 -75 81 0
-71 -76 57 0
-71 -77 58 0
-71 -78 59 0
-71 -79 60 0
-71 -80 61 0
-81 50 0
-72 50 0
-81 -72 51 0
-73 51 0
-81 -73 52 0
-74 52 0
-81 -74 53 0
-63 50 0
-81 -63 51 0
-64 51 0
-81 -64 52 0
-65 52 0
-81 -65 53 0
-63 -72 51 0
-81 -63 -72 52 0
-63 -73 52 0
-81 -63 -73 53 0
-63 -74 53 0
-81 -63 -74 54 0
-64 -72 52 0
-81 -64 -72 53 0
-64 -73 53 0
-81 -64 -73 54 0
-64 -74 54 0
-81 -64 -74 55 0
-65 -72 53 0
-81 -65 -72 54 0
-65 -73 54 0
-81 -65 -73 55 0
-65 -74 55 0
-81 -65 -74 56 0
-90 75 96 0
-91 76 96 0
-92 77 96 0
-93 78 96 0
-94 79 96 0
-95 80 96 0
-83 75 96 0
-84 76 96 0
-85 77 96 0
-86 78 96 0
-87 79 96 0
-88 80 96 0
-83 -90 76 96 0
-83 -91 77 96 0
-83 -92 78 96 0
-83 -93 79 96 0
-83 -94 80 96 0
-83 -95 96 0
-84 -90 77 96 0
-84 -91 78 96 0
-84 -92 79 96 0
-84 -93 80 96 0
-84 -94 96 0
-84 -95 75 0
-85 -90 78 96 0
-85 -91 79 96 0
-85 -92 80 96 0
-85 -93 96 0
-85 -94 75 0
-85 -95 76 0
-86 -90 79 96 0
-86 -91 80 96 0
-86 -92 96 0
-86 -93 75 0
-86 -94 76 0
-86 -95 77 0
-87 -90 80 96 0
-87 -91 96 0
-87 -92 75 0
-87 -93 76 0
-87 -94 77 0
-87 -95 78 0
-88 -90 96 0
-88 -91 75 0
-88 -92 76 0
-88 -93 77 0
-88 -94 78 0
-88 -95 79 0
-96 72 0
-89 72 0
-96 -89 73 0
-82 72 0
-96 -82 73 0
-82 -89 73 0
-96 -82 -89 74 0
-106 97 0
-107 98 0
-108 99 0
-103 97 0
-104 98 0
-105 99 0
-103 -106 98 0
-103 -107 99 0
-103 -108 100 0
-104 -106 99 0
-104 -107 100 0
-104 -108 101 0
-105 -106 100 0
-105 -107 101 0
-105 -108 102 0
-38 106 0
-109 106 0
-110 107 0
-109 -38 107 0
-110 -38 108 0
-31 109 0
-32 109 0
-32 -31 110 0
-39 103 0
-111 103 0
-112 104 0
-111 -39 104 0
-112 -39 105 0
-46 111 0
-45 111 0
-45 -46 112 0
-122 113 0
-123 114 0
-124 115 0
-119 113 0
-120 114 0
-121 115 0
-119 -122 114 0
-119 -123 115 0
-119 -124 116 0
-120 -122 115 0
-120 -123 116 0
-120 -124 117 0
-121 -122 116 0
-121 -123 117 0
-121 -124 118 0
-44 122 0
-125 122 0
-126 123 0
-125 -44 123 0
-126 -44 124 0
-43 125 0
-36 125 0
-36 -43 126 0
-29 119 0
-127 119 0
-128 120 0
-127 -29 120 0
-128 -29 121 0
-30 127 0
-37 127 0
-37 -30 128 0
-113 90 129 0
-114 91 129 0
-115 92 129 0
-116 93 129 0
-117 94 129 0
-118 95 129 0
-97 90 129 0
-98 91 129 0
-99 92 129 0
-100 93 129 0
-101 94 129 0
-102 95 129 0
-97 -113 91 129 0
-97 -114 92 129 0
-97 -115 93 129 0
-97 -116 94 129 0
-97 -117 95 129 0
-97 -118 129 0
-98 -113 92 129 0
-98 -114 93 129 0
-98 -115 94 129 0
-98 -116 95 129 0
-98 -117 129 0
-98 -118 90 0
-99 -113 93 129 0
-99 -114 94 129 0
-99 -115 95 129 0
-99 -116 129 0
-99 -117 90 0
-99 -118 91 0
-100 -113 94 129 0
-100 -114 95 129 0
-100 -115 129 0
-100 -116 90 0
-100 -117 91 0
-100 -118 92 0
-101 -113 95 129 0
-101 -114 129 0
-101 -115 90 0
-101 -116 91 0
-101 -117 92 0
-101 -118 93 0
-102 -113 129 0
-102 -114 90 0
-102 -115 91 0
-102 -116 92 0
-102 -117 93 0
-102 -118 94 0
-129 89 0
-139 130 0
-140 131 0
-141 132 0
-136 130 0
-137 131 0
-138 132 0
-136 -139 131 0
-136 -140 132 0
-136 -141 133 0
-137 -139 132 0
-137 -140 133 0
-137 -141 134 0
-138 -139 133 0
-138 -140 134 0
-138 -141 135 0
-41 139 0
-142 139 0
-143 140 0
-142 -41 140 0
-143 -41 141 0
-40 142 0
-33 142 0
-33 -40 143 0
-26 136 0
-144 136 0
-145 137 0
-144 -26 137 0
-145 -26 138 0
-19 144 0
-20 144 0
-20 -19 145 0
-155 146 0
-156 147 0
-157 148 0
-152 146 0
-153 147 0
-154 148 0
-152 -155 147 0
-152 -156 148 0
-152 -157 149 0
-153 -155 148 0
-153 -156 149 0
-153 -157 150 0
-154 -155 149 0
-154 -156 150 0
-154 -157 151 0
-47 155 0
-158 155 0
-159 156 0
-158 -47 156 0
-159 -47 157 0
-48 158 0
-49 158 0
-49 -48 159 0
-42 152 0
-160 152 0
-161 153 0
-160 -42 153 0
-161 -42 154 0
-35 160 0
-34 160 0
-34 -35 161 0
-146 83 162 0
-147 84 162 0
-148 85 162 0
-149 86 162 0
-150 87 162 0
-151 88 162 0
-130 83 162 0
-131 84 162 0
-132 85 162 0
-133 86 162 0
-134 87 162 0
-135 88 162 0
-130 -146 84 162 0
-130 -147 85 162 0
-130 -148 86 162 0
-130 -149 87 162 0
-130 -150 88 162 0
-130 -151 162 0
-131 -146 85 162 0
-131 -147 86 162 0
-131 -148 87 162 0
-131 -149 88 162 0
-131 -150 162 0
-131 -151 83 0
-132 -146 86 162 0
-132 -147 87 162 0
-132 -148 88 162 0
-132 -149 162 0
-132 -150 83 0
-132 -151 84 0
-133 -146 87 162 0
-133 -147 88 162 0
-133 -148 162 0
-133 -149 83 0
-133 -150 84 0
-133 -151 85 0
-134 -146 88 162 0
-134 -147 162 0
-134 -148 83 0
-134 -149 84 0
-134 -150 85 0
-134 -151 86 0
-135 -146 162 0
-135 -147 83 0
-135 -148 84 0
-135 -149 85 0
-135 -150 86 0
-135 -151 87 0
-162 82 0
-171 66 177 0
-172 67 177 0
-173 68 177 0
-174 69 177 0
-175 70 177 0
-176 71 177 0
-164 66 177 0
-165 67 177 0
-166 68 177 0
-167 69 177 0
-168 70 177 0
-169 71 177 0
-164 -171 67 177 0
-164 -172 68 177 0
-164 -173 69 177 0
-164 -174 70 177 0
-164 -175 71 177 0
-164 -176 177 0
-165 -171 68 177 0
-165 -172 69 177 0
-165 -173 70 177 0
-165 -174 71 177 0
-165 -175 177 0
-165 -176 66 0
-166 -171 69 177 0
-166 -172 70 177 0
-166 -173 71 177 0
-166 -174 177 0
-166 -175 66 0
-166 -176 67 0
-167 -171 70 177 0
-167 -172 71 177 0
-167 -173 177 0
-167 -174 66 0
-167 -175 67 0
-167 -176 68 0
-168 -171 71 177 0
-168 -172 177 0
-168 -173 66 0
-168 -174 67 0
-168 -175 68 0
-168 -176 69 0
-169 -171 177 0
-169 -172 66 0
-169 -173 67 0
-169 -174 68 0
-169 -175 69 0
-169 -176 70 0
-177 63 0
-170 63 0
-177 -170 64 0
-163 63 0
-177 -163 64 0
-163 -170 64 0
-177 -163 -170 65 0
-187 178 0
-188 179 0
-189 180 0
-184 178 0
-185 179 0
-186 180 0
-184 -187 179 0
-184 -188 180 0
-184 -189 181 0
-185 -187 180 0
-185 -188 181 0
-185 -189 182 0
-186 -187 181 0
-186 -188 182 0
-186 -189 183 0
-13 187 0
-190 187 0
-191 188 0
-190 -13 188 0
-191 -13 189 0
-12 190 0
-5 190 0
-5 -12 191 0
-4 184 0
-192 184 0
-193 185 0
-192 -4 185 0
-193 -4 186 0
-3 192 0
-10 192 0
-10 -3 193 0
-203 194 0
-204 195 0
-205 196 0
-200 194 0
-201 195 0
-202 196 0
-200 -203 195 0
-200 -204 196 0
-200 -205 197 0
-201 -203 196 0
-201 -204 197 0
-201 -205 198 0
-202 -203 197 0
-202 -204 198 0
-202 -205 199 0
-27 203 0
-206 203 0
-207 204 0
-206 -27 204 0
-207 -27 205 0
-28 206 0
-21 206 0
-21 -28 207 0
-14 200 0
-208 200 0
-209 201 0
-208 -14 201 0
-209 -14 202 0
-7 208 0
-6 208 0
-6 -7 209 0
-194 171 210 0
-195 172 210 0
-196 173 210 0
-197 174 210 0
-198 175 210 0
-199 176 210 0
-178 171 210 0
-179 172 210 0
-180 173 210 0
-181 174 210 0
-182 175 210 0
-183 176 210 0
-178 -194 172 210 0
-178 -195 173 210 0
-178 -196 174 210 0
-178 -197 175 210 0
-178 -198 176 210 0
-178 -199 210 0
-179 -194 173 210 0
-179 -195 174 210 0
-179 -196 175 210 0
-179 -197 176 210 0
-179 -198 210 0
-179 -199 171 0
-180 -194 174 210 0
-180 -195 175 210 0
-180 -196 176 210 0
-180 -197 210 0
-180 -198 171 0
-180 -199 172 0
-181 -194 175 210 0
-181 -195 176 210 0
-181 -196 210 0
-181 -197 171 0
-181 -198 172 0
-181 -199 173 0
-182 -194 176 210 0
-182 -195 210 0
-182 -196 171 0
-182 -197 172 0
-182 -198 173 0
-182 -199 174 0
-183 -194 210 0
-183 -195 171 0
-183 -196 172 0
-183 -197 173 0
-183 -198 174 0
-183 -199 175 0
-210 170 0
-227 218 0
-228 219 0
-229 220 0
-224 218 0
-225 219 0
-226 220 0
-224 -227 219 0
-224 -228 220 0
-224 -229 221 0
-225 -227 220 0
-225 -228 221 0
-225 -229 222 0
-226 -227 221 0
-226 -228 222 0
-226 -229 223 0
-11 227 0
-230 227 0
-231 228 0
-230 -11 228 0
-231 -11 229 0
-18 230 0
-25 230 0
-25 -18 231 0
-24 224 0
-232 224 0
-233 225 0
-232 -24 225 0
-233 -24 226 0
-17 232 0
-16 232 0
-16 -17 233 0
-218 164 234 0
-219 165 234 0
-220 166 234 0
-221 167 234 0
-222 168 234 0
-223 169 234 0
-212 164 234 0
-213 165 234 0
-214 166 234 0
-215 167 234 0
-216 168 234 0
-217 169 234 0
-212 -218 165 234 0
-212 -219 166 234 0
-212 -220 167 234 0
-212 -221 168 234 0
-212 -222 169 234 0
-212 -223 234 0
-213 -218 166 234 0
-213 -219 167 234 0
-213 -220 168 234 0
-213 -221 169 234 0
-213 -222 234 0
-213 -223 164 0
-214 -218 167 234 0
-214 -219 168 234 0
-214 -220 169 234 0
-214 -221 234 0
-214 -222 164 0
-214 -223 165 0
-215 -218 168 234 0
-215 -219 169 234 0
-215 -220 234 0
-215 -221 164 0
-215 -222 165 0
-215 -223 166 0
-216 -218 169 234 0
-216 -219 234 0
-216 -220 164 0
-216 -221 165 0
-216 -222 166 0
-216 -223 167 0
-217 -218 234 0
-217 -219 164 0
-217 -220 165 0
-217 -221 166 0
-217 -222 167 0
-217 -223 168 0
-234 163 0
-211 163 0
-234 -211 0
-241 235 0
-242 236 0
-239 235 0
-240 236 0
-239 -241 236 0
-239 -242 237 0
-240 -241 237 0
-240 -242 238 0
-8 241 0
-9 241 0
-9 -8 242 0
-2 239 0
-1 239 0
-1 -2 240 0
-23 243 0
-246 243 0
-247 244 0
-246 -23 244 0
-247 -23 245 0
-22 246 0
-15 246 0
-15 -22 247 0
-243 212 248 0
-244 213 248 0
-245 214 248 0
-235 212 248 0
-236 213 248 0
-237 214 248 0
-238 215 248 0
-235 -243 213 248 0
-235 -244 214 248 0
-235 -245 215 248 0
-236 -243 214 248 0
-236 -244 215 248 0
-236 -245 216 248 0
-237 -243 215 248 0
-237 -244 216 248 0
-237 -245 217 248 0
-238 -243 216 248 0
-238 -244 217 248 0
-238 -245 248 0
-248 211 0
-50 0
-51 0
-52 0
-53 0
-54 0
-55 0
-56 0
-61 0
-62 0
249 0
298 0
250 7 -249 0
250 -1 -249 0
7 -1 -249 0
251 14 -250 0
251 -2 -250 0
14 -2 -250 0
252 21 -251 0
252 -3 -251 0
21 -3 -251 0
253 28 -252 0
253 -4 -252 0
28 -4 -252 0
254 35 -253 0
254 -5 -253 0
35 -5 -253 0
255 42 -254 0
255 -6 -254 0
42 -6 -254 0
256 49 -255 0
256 -7 -255 0
49 -7 -255 0
257 6 -256 0
257 -8 -256 0
6 -8 -256 0
258 13 -257 0
258 -9 -257 0
13 -9 -257 0
259 20 -258 0
259 -10 -258 0
20 -10 -258 0
260 27 -259 0
260 -11 -259 0
27 -11 -259 0
261 34 -260 0
261 -12 -260 0
34 -12 -260 0
262 41 -261 0
262 -13 -261 0
41 -13 -261 0
263 48 -262 0
263 -14 -262 0
48 -14 -262 0
264 5 -263 0
264 -15 -263 0
5 -15 -263 0
265 12 -264 0
265 -16 -264 0
12 -16 -264 0
266 19 -265 0
266 -17 -265 0
19 -17 -265 0
267 26 -266 0
267 -18 -266 0
26 -18 -266 0
268 33 -267 0
268 -19 -267 0
33 -19 -267 0
269 40 -268 0
269 -20 -268 0
40 -20 -268 0
270 47 -269 0
270 -21 -269 0
47 -21 -269 0
271 4 -270 0
271 -22 -270 0
4 -22 -270 0
272 11 -271 0
272 -23 -271 0
11 -23 -271 0
273 18 -272 0
273 -24 -272 0
18 -24 -272 0
274 25 -273 0
274 -25 -273 0
25 -25 -273 0
275 32 -274 0
275 -26 -274 0
32 -26 -274 0
276 39 -275 0
276 -27 -275 0
39 -27 -275 0
277 46 -276 0
277 -28 -276 0
46 -28 -276 0
278 3 -277 0
278 -29 -277 0
3 -29 -277 0
279 10 -278 0
279 -30 -278 0
10 -30 -278 0
280 17 -279 0
280 -31 -279 0
17 -31 -279 0
281 24 -280 0
281 -32 -280 0
24 -32 -280 0
282 31 -281 0
282 -33 -281 0
31 -33 -281 0
283 38 -282 0
283 -34 -282 0
38 -34 -282 0
284 45 -283 0
284 -35 -283 0
45 -35 -283 0
285 2 -284 0
285 -36 -284 0
2 -36 -284 0
286 9 -285 0
286 -37 -285 0
9 -37 -285 0
287 16 -286 0
287 -38 -286 0
16 -38 -286 0
288 23 -287 0
288 -39 -287 0
23 -39 -287 0
289 30 -288 0
289 -40 -288 0
30 -40 -288 0
290 37 -289 0
290 -41 -289 0
37 -41 -289 0
291 44 -290 0
291 -42 -290 0
44 -42 -290 0
292 1 -291 0
292 -43 -291 0
1 -43 -291 0
293 8 -292 0
293 -44 -292 0
8 -44 -292 0
294 15 -293 0
294 -45 -293 0
15 -45 -293 0
295 22 -294 0
295 -46 -294 0
22 -46 -294 0
296 29 -295 0
296 -47 -295 0
29 -47 -295 0
297 36 -296 0
297 -48 -296 0
36 -48 -296 0
298 43 -297 0
298 -49 -297 0
43 -49 -297 0
299 0
348 0
300 49 -299 0
300 -1 -299 0
49 -1 -299 0
301 48 -300 0
301 -2 -300 0
48 -2 -300 0
302 47 -301 0
302 -3 -301 0
47 -3 -301 0
303 46 -302 0
303 -4 -302 0
46 -4 -302 0
304 45 -303 0
304 -5 -303 0
45 -5 -303 0
305 44 -304 0
305 -6 -304 0
44 -6 -304 0
306 43 -305 0
306 -7 -305 0
43 -7 -305 0
307 42 -306 0
307 -8 -306 0
42 -8 -306 0
308 41 -307 0
308 -9 -307 0
41 -9 -307 0
309 40 -308 0
309 -10 -308 0
40 -10 -308 0
310 39 -309 0
310 -11 -309 0
39 -11 -309 0
311 38 -310 0
311 -12 -310 0
38 -12 -310 0
312 37 -311 0
312 -13 -311 0
37 -13 -311 0
313 36 -312 0
313 -14 -312 0
36 -14 -312 0
314 35 -313 0
314 -15 -313 0
35 -15 -313 0
315 34 -314 0
315 -16 -314 0
34 -16 -314 0
316 33 -315 0
316 -17 -315 0
33 -17 -315 0
317 32 -316 0
317 -18 -316 0
32 -18 -316 0
318 31 -317 0
318 -19 -317 0
31 -19 -317 0
319 30 -318 0
319 -20 -318 0
30 -20 -318 0
320 29 -319 0
320 -21 -319 0
29 -21 -319 0
321 28 -320 0
321 -22 -320 0
28 -22 -320 0
322 27 -321 0
322 -23 -321 0
27 -23 -321 0
323 26 -322 0
323 -24 -322 0
26 -24 -322 0
324 25 -323 0
324 -25 -323 0
25 -25 -323 0
325 24 -324 0
325 -26 -324 0
24 -26 -324 0
326 23 -325 0
326 -27 -325 0
23 -27 -325 0
327 22 -326 0
327 -28 -326 0
22 -28 -326 0
328 21 -327 0
328 -29 -327 0
21 -29 -327 0
329 20 -328 0
329 -30 -328 0
20 -30 -328 0
330 19 -329 0
330 -31 -329 0
19 -31 -329 0
331 18 -330 0
331 -32 -330 0
18 -32 -330 0
332 17 -331 0
332 -33 -331 0
17 -33 -331 0
333 16 -332 0
333 -34 -332 0
16 -34 -332 0
334 15 -333 0
334 -35 -333 0
15 -35 -333 0
335 14 -334 0
335 -36 -334 0
14 -36 -334 0
336 13 -335 0
336 -37 -335 0
13 -37 -335 0
337 12 -336 0
337 -38 -336 0
12 -38 -336 0
338 11 -337 0
338 -39 -337 0
11 -39 -337 0
339 10 -338 0
339 -40 -338 0
10 -40 -338 0
340 9 -339 0
340 -41 -339 0
9 -41 -339 0
341 8 -340 0
341 -42 -340 0
8 -42 -340 0
342 7 -341 0
342 -43 -341 0
7 -43 -341 0
343 6 -342 0
343 -44 -342 0
6 -44 -342 0
344 5 -343 0
344 -45 -343 0
5 -45 -343 0
345 4 -344 0
345 -46 -344 0
4 -46 -344 0
346 3 -345 0
346 -47 -345 0
3 -47 -345 0
347 2 -346 0
347 -48 -346 0
2 -48 -346 0
348 1 -347 0
348 -49 -347 0
1 -49 -347 0
349 0
398 0
350 43 -349 0
350 -1 -349 0
43 -1 -349 0
351 36 -350 0
351 -2 -350 0
36 -2 -350 0
352 29 -351 0
352 -3 -351 0
29 -3 -351 0
353 22 -352 0
353 -4 -352 0
22 -4 -352 0
354 15 -353 0
354 -5 -353 0
15 -5 -353 0
355 8 -354 0
355 -6 -354 0
8 -6 -354 0
356 1 -355 0
356 -7 -355 0
1 -7 -355 0
357 44 -356 0
357 -8 -356 0
44 -8 -356 0
358 37 -357 0
358 -9 -357 0
37 -9 -357 0
359 30 -358 0
359 -10 -358 0
30 -10 -358 0
360 23 -359 0
360 -11 -359 0
23 -11 -359 0
361 16 -360 0
361 -12 -360 0
16 -12 -360 0
362 9 -361 0
362 -13 -361 0
9 -13 -361 0
363 2 -362 0
363 -14 -362 0
2 -14 -362 0
364 45 -363 0
364 -15 -363 0
45 -15 -363 0
365 38 -364 0
365 -16 -364 0
38 -16 -364 0
366 31 -365 0
366 -17 -365 0
31 -17 -365 0
367 24 -366 0
367 -18 -366 0
24 -18 -366 0
368 17 -367 0
368 -19 -367 0
17 -19 -367 0
369 10 -368 0
369 -20 -368 0
10 -20 -368 0
370 3 -369 0
370 -21 -369 0
3 -21 -369 0
371 46 -370 0
371 -22 -370 0
46 -22 -370 0
372 39 -371 0
372 -23 -371 0
39 -23 -371 0
373 32 -372 0
373 -24 -372 0
32 -24 -372 0
374 25 -373 0
374 -25 -373 0
25 -25 -373 0
375 18 -374 0
375 -26 -374 0
18 -26 -374 0
376 11 -375 0
376 -27 -375 0
11 -27 -375 0
377 4 -376 0
377 -28 -376 0
4 -28 -376 0
378 47 -377 0
378 -29 -377 0
47 -29 -377 0
379 40 -378 0
379 -30 -378 0
40 -30 -378 0
380 33 -379 0
380 -31 -379 0
33 -31 -379 0
381 26 -380 0
381 -32 -380 0
26 -32 -380 0
382 19 -381 0
382 -33 -381 0
19 -33 -381 0
383 12 -382 0
383 -34 -382 0
12 -34 -382 0
384 5 -383 0
384 -35 -383 0
5 -35 -383 0
385 48 -384 0
385 -36 -384 0
48 -36 -384 0
386 41 -385 0
386 -37 -385 0
41 -37 -385 0
387 34 -386 0
387 -38 -386 0
34 -38 -386 0
388 27 -387 0
388 -39 -387 0
27 -39 -387 0
389 20 -388 0
389 -40 -388 0
20 -40 -388 0
390 13 -389 0
390 -41 -389 0
13 -41 -389 0
391 6 -390 0
391 -42 -390 0
6 -42 -390 0
392 49 -391 0
392 -43 -391 0
49 -43 -391 0
393 42 -392 0
393 -44 -392 0
42 -44 -392 0
394 35 -393 0
394 -45 -393 0
35 -45 -393 0
395 28 -394 0
395 -46 -394 0
28 -46 -394 0
396 21 -395 0
396 -47 -395 0
21 -47 -395 0
397 14 -396 0
397 -48 -396 0
14 -48 -396 0
398 7 -397 0
398 -49 -397 0
7 -49 -397 0
399 0
448 0
400 7 -399 0
400 -1 -399 0
7 -1 -399 0
401 6 -400 0
401 -2 -400 0
6 -2 -400 0
402 5 -401 0
402 -3 -401 0
5 -3 -401 0
403 4 -402 0
403 -4 -402 0
4 -4 -402 0
404 3 -403 0
404 -5 -403 0
3 -5 -403 0
405 2 -404 0
405 -6 -404 0
2 -6 -404 0
406 1 -405 0
406 -7 -405 0
1 -7 -405 0
407 14 -406 0
407 -8 -406 0
14 -8 -406 0
408 13 -407 0
408 -9 -407 0
13 -9 -407 0
409 12 -408 0
409 -10 -408 0
12 -10 -408 0
410 11 -409 0
410 -11 -409 0
11 -11 -409 0
411 10 -410 0
411 -12 -410 0
10 -12 -410 0
412 9 -411 0
412 -13 -411 0
9 -13 -411 0
413 8 -412 0
413 -14 -412 0
8 -14 -412 0
414 21 -413 0
414 -15 -413 0
21 -15 -413 0
415 20 -414 0
415 -16 -414 0
20 -16 -414 0
416 19 -415 0
416 -17 -415 0
19 -17 -415 0
417 18 -416 0
417 -18 -416 0
18 -18 -416 0
418 17 -417 0
418 -19 -417 0
17 -19 -417 0
419 16 -418 0
419 -20 -418 0
16 -20 -418 0
420 15 -419 0
420 -21 -419 0
15 -21 -419 0
421 28 -420 0
421 -22 -420 0
28 -22 -420 0
422 27 -421 0
422 -23 -421 0
27 -23 -421 0
423 26 -422 0
423 -24 -422 0
26 -24 -422 0
424 25 -423 0
424 -25 -423 0
25 -25 -423 0
425 24 -424 0
425 -26 -424 0
24 -26 -424 0
426 23 -425 0
426 -27 -425 0
23 -27 -425 0
427 22 -426 0
427 -28 -426 0
22 -28 -426 0
428 35 -427 0
428 -29 -427 0
35 -29 -427 0
429 34 -428 0
429 -30 -428 0
34 -30 -428 0
430 33 -429 0
430 -31 -429 0
33 -31 -429 0
431 32 -430 0
431 -32 -430 0
32 -32 -430 0
432 31 -431 0
432 -33 -431 0
31 -33 -431 0
433 30 -432 0
433 -34 -432 0
30 -34 -432 0
434 29 -433 0
434 -35 -433 0
29 -35 -433 0
435 42 -434 0
435 -36 -434 0
42 -36 -434 0
436 41 -435 0
436 -37 -435 0
41 -37 -435 0
437 40 -436 0
437 -38 -436 0
40 -38 -436 0
438 39 -437 0
438 -39 -437 0
39 -39 -437 0
439 38 -438 0
439 -40 -438 0
38 -40 -438 0
440 37 -439 0
440 -41 -439 0
37 -41 -439 0
441 36 -440 0
441 -42 -440 0
36 -42 -440 0
442 49 -441 0
442 -43 -441 0
49 -43 -441 0
443 48 -442 0
443 -44 -442 0
48 -44 -442 0
444 47 -443 0
444 -45 -443 0
47 -45 -443 0
445 46 -444 0
445 -46 -444 0
46 -46 -444 0
446 45 -445 0
446 -47 -445 0
45 -47 -445 0
447 44 -446 0
447 -48 -446 0
44 -48 -446 0
448 43 -447 0
448 -49 -447 0
43 -49 -447 0
449 0
498 0
450 43 -449 0
450 -1 -449 0
43 -1 -449 0
451 44 -450 0
451 -2 -450 0
44 -2 -450 0
452 45 -451 0
452 -3 -451 0
45 -3 -451 0
453 46 -452 0
453 -4 -452 0
46 -4 -452 0
454 47 -453 0
454 -5 -453 0
47 -5 -453 0
455 48 -454 0
455 -6 -454 0
48 -6 -454 0
456 49 -455 0
456 -7 -455 0
49 -7 -455 0
457 36 -456 0
457 -8 -456 0
36 -8 -456 0
458 37 -457 0
458 -9 -457 0
37 -9 -457 0
459 38 -458 0
459 -10 -458 0
38 -10 -458 0
460 39 -459 0
460 -11 -459 0
39 -11 -459 0
461 40 -460 0
461 -12 -460 0
40 -12 -460 0
462 41 -461 0
462 -13 -461 0
41 -13 -461 0
463 42 -462 0
463 -14 -462 0
42 -14 -462 0
464 29 -463 0
464 -15 -463 0
29 -15 -463 0
465 30 -464 0
465 -16 -464 0
30 -16 -464 0
466 31 -465 0
466 -17 -465 0
31 -17 -465 0
467 32 -466 0
467 -18 -466 0
32 -18 -466 0
468 33 -467 0
468 -19 -467 0
33 -19 -467 0
469 34 -468 0
469 -20 -468 0
34 -20 -468 0
470 35 -469 0
470 -21 -469 0
35 -21 -469 0
471 22 -470 0
471 -22 -470 0
22 -22 -470 0
472 23 -471 0
472 -23 -471 0
23 -23 -471 0
473 24 -472 0
473 -24 -472 0
24 -24 -472 0
474 25 -473 0
474 -25 -473 0
25 -25 -473 0
475 26 -474 0
475 -26 -474 0
26 -26 -474 0
476 27 -475 0
476 -27 -475 0
27 -27 -475 0
477 28 -476 0
477 -28 -476 0
28 -28 -476 0
478 15 -477 0
478 -29 -477 0
15 -29 -477 0
479 16 -478 0
479 -30 -478 0
16 -30 -478 0
480 17 -479 0
480 -31 -479 0
17 -31 -479 0
481 18 -480 0
481 -32 -480 0
18 -32 -480 0
482 19 -481 0
482 -33 -481 0
19 -33 -481 0
483 20 -482 0
483 -34 -482 0
20 -34 -482 0
484 21 -483 0
484 -35 -483 0
21 -35 -483 0
485 8 -484 0
485 -36 -484 0
8 -36 -484 0
486 9 -485 0
486 -37 -485 0
9 -37 -485 0
487 10 -486 0
487 -38 -486 0
10 -38 -486 0
488 11 -487 0
488 -39 -487 0
11 -39 -487 0
489 12 -488 0
489 -40 -488 0
12 -40 -488 0
490 13 -489 0
490 -41 -489 0
13 -41 -489 0
491 14 -490 0
491 -42 -490 0
14 -42 -490 0
492 1 -491 0
492 -43 -491 0
1 -43 -491 0
493 2 -492 0
493 -44 -492 0
2 -44 -492 0
494 3 -493 0
494 -45 -493 0
3 -45 -493 0
495 4 -494 0
495 -46 -494 0
4 -46 -494 0
496 5 -495 0
496 -47 -495 0
5 -47 -495 0
497 6 -496 0
497 -48 -496 0
6 -48 -496 0
498 7 -497 0
498 -49 -497 0
7 -49 -497 0
499 0
548 0
500 1 -499 0
500 -1 -499 0
1 -1 -499 0
501 8 -500 0
501 -2 -500 0
8 -2 -500 0
502 15 -501 0
502 -3 -501 0
15 -3 -501 0
503 22 -502 0
503 -4 -502 0
22 -4 -502 0
504 29 -503 0
504 -5 -503 0
29 -5 -503 0
505 36 -504 0
505 -6 -504 0
36 -6 -504 0
506 43 -505 0
506 -7 -505 0
43 -7 -505 0
507 2 -506 0
507 -8 -506 0
2 -8 -506 0
508 9 -507 0
508 -9 -507 0
9 -9 -507 0
509 16 -508 0
509 -10 -508 0
16 -10 -508 0
510 23 -509 0
510 -11 -509 0
23 -11 -509 0
511 30 -510 0
511 -12 -510 0
30 -12 -510 0
512 37 -511 0
512 -13 -511 0
37 -13 -511 0
513 44 -512 0
513 -14 -512 0
44 -14 -512 0
514 3 -513 0
514 -15 -513 0
3 -15 -513 0
515 10 -514 0
515 -16 -514 0
10 -16 -514 0
516 17 -515 0
516 -17 -515 0
17 -17 -515 0
517 24 -516 0
517 -18 -516 0
24 -18 -516 0
518 31 -517 0
518 -19 -517 0
31 -19 -517 0
519 38 -518 0
519 -20 -518 0
38 -20 -518 0
520 45 -519 0
520 -21 -519 0
45 -21 -519 0
521 4 -520 0
521 -22 -520 0
4 -22 -520 0
522 11 -521 0
522 -23 -521 0
11 -23 -521 0
523 18 -522 0
523 -24 -522 0
18 -24 -522 0
524 25 -523 0
524 -25 -523 0
25 -25 -523 0
525 32 -524 0
525 -26 -524 0
32 -26 -524 0
526 39 -525 0
526 -27 -525 0
39 -27 -525 0
527 46 -526 0
527 -28 -526 0
46 -28 -526 0
528 5 -527 0
528 -29 -527 0
5 -29 -527 0
529 12 -528 0
529 -30 -528 0
12 -30 -528 0
530 19 -529 0
530 -31 -529 0
19 -31 -529 0
531 26 -530 0
531 -32 -530 0
26 -32 -530 0
532 33 -531 0
532 -33 -531 0
33 -33 -531 0
533 40 -532 0
533 -34 -532 0
40 -34 -532 0
534 47 -533 0
534 -35 -533 0
47 -35 -533 0
535 6 -534 0
535 -36 -534 0
6 -36 -534 0
536 13 -535 0
536 -37 -535 0
13 -37 -535 0
537 20 -536 0
537 -38 -536 0
20 -38 -536 0
538 27 -537 0
538 -39 -537 0
27 -39 -537 0
539 34 -538 0
539 -40 -538 0
34 -40 -538 0
540 41 -539 0
540 -41 -539 0
41 -41 -539 0
541 48 -540 0
541 -42 -540 0
48 -42 -540 0
542 7 -541 0
542 -43 -541 0
7 -43 -541 0
543 14 -542 0
543 -44 -542 0
14 -44 -542 0
544 21 -543 0
544 -45 -543 0
21 -45 -543 0
545 28 -544 0
545 -46 -544 0
28 -46 -544 0
546 35 -545 0
546 -47 -545 0
35 -47 -545 0
547 42 -546 0
547 -48 -546 0
42 -48 -546 0
548 49 -547 0
548 -49 -547 0
49 -49 -547 0
549 0
598 0
550 49 -549 0
550 -1 -549 0
49 -1 -549 0
551 42 -550 0
551 -2 -550 0
42 -2 -550 0
552 35 -551 0
552 -3 -551 0
35 -3 -551 0
553 28 -552 0
553 -4 -552 0
28 -4 -552 0
554 21 -553 0
554 -5 -553 0
21 -5 -553 0
555 14 -554 0
555 -6 -554 0
14 -6 -554 0
556 7 -555 0
556 -7 -555 0
7 -7 -555 0
557 48 -556 0
557 -8 -556 0
48 -8 -556 0
558 41 -557 0
558 -9 -557 0
41 -9 -557 0
559 34 -558 0
559 -10 -558 0
34 -10 -558 0
560 27 -559 0
560 -11 -559 0
27 -11 -559 0
561 20 -560 0
561 -12 -560 0
20 -12 -560 0
562 13 -561 0
562 -13 -561 0
13 -13 -561 0
563 6 -562 0
563 -14 -562 0
6 -14 -562 0
564 47 -563 0
564 -15 -563 0
47 -15 -563 0
565 40 -564 0
565 -16 -564 0
40 -16 -564 0
566 33 -565 0
566 -17 -565 0
33 -17 -565 0
567 26 -566 0
567 -18 -566 0
26 -18 -566 0
568 19 -567 0
568 -19 -567 0
19 -19 -567 0
569 12 -568 0
569 -20 -568 0
12 -20 -568 0
570 5 -569 0
570 -21 -569 0
5 -21 -569 0
571 46 -570 0
571 -22 -570 0
46 -22 -570 0
572 39 -571 0
572 -23 -571 0
39 -23 -571 0
573 32 -572 0
573 -24 -572 0
32 -24 -572 0
574 25 -573 0
574 -25 -573 0
25 -25 -573 0
575 18 -574 0
575 -26 -574 0
18 -26 -574 0
576 11 -575 0
576 -27 -575 0
11 -27 -575 0
577 4 -576 0
577 -28 -576 0
4 -28 -576 0
578 45 -577 0
578 -29 -577 0
45 -29 -577 0
579 38 -578 0
579 -30 -578 0
38 -30 -578 0
580 31 -579 0
580 -31 -579 0
31 -31 -579 0
581 24 -580 0
581 -32 -580 0
24 -32 -580 0
582 17 -581 0
582 -33 -581 0
17 -33 -581 0
583 10 -582 0
583 -34 -582 0
10 -34 -582 0
584 3 -583 0
584 -35 -583 0
3 -35 -583 0
585 44 -584 0
585 -36 -584 0
44 -36 -584 0
586 37 -585 0
586 -37 -585 0
37 -37 -585 0
587 30 -586 0
587 -38 -586 0
30 -38 -586 0
588 23 -587 0
588 -39 -587 0
23 -39 -587 0
589 16 -588 0
589 -40 -588 0
16 -40 -588 0
590 9 -589 0
590 -41 -589 0
9 -41 -589 0
591 2 -590 0
591 -42 -590 0
2 -42 -590 0
592 43 -591 0
592 -43 -591 0
43 -43 -591 0
593 36 -592 0
593 -44 -592 0
36 -44 -592 0
594 29 -593 0
594 -45 -593 0
29 -45 -593 0
595 22 -594 0
595 -46 -594 0
22 -46 -594 0
596 15 -595 0
596 -47 -595 0
15 -47 -595 0
597 8 -596 0
597 -48 -596 0
8 -48 -596 0
598 1 -597 0
598 -49 -597 0
1 -49 -597 0
